certificates/rado_a11_c135_N27.cnf
c Rad2 upper bound instance: x1 + 11*x2 - x3 = 135, interval [1,27]
p cnf 27 132
1 9 13 0
-1 -9 -13 0
1 14 20 0
-1 -14 -20 0
2 10 13 0
-2 -10 -13 0
2 14 21 0
-2 -14 -21 0
3 11 13 0
-3 -11 -13 0
3 14 22 0
-3 -14 -22 0
1 4 12 0
-1 -4 -12 0
4 12 13 0
-4 -12 -13 0
4 14 23 0
-4 -14 -23 0
2 5 12 0
-2 -5 -12 0
5 13 0
-5 -13 0
5 14 24 0
-5 -14 -24 0
3 6 12 0
-3 -6 -12 0
6 13 14 0
-6 -13 -14 0
6 14 25 0
-6 -14 -25 0
4 7 12 0
-4 -7 -12 0
7 13 15 0
-7 -13 -15 0
7 14 26 0
-7 -14 -26 0
5 8 12 0
-5 -8 -12 0
8 13 16 0
-8 -13 -16 0
8 14 27 0
-8 -14 -27 0
6 9 12 0
-6 -9 -12 0
9 13 17 0
-9 -13 -17 0
7 10 12 0
-7 -10 -12 0
10 13 18 0
-10 -13 -18 0
8 11 12 0
-8 -11 -12 0
11 13 19 0
-11 -13 -19 0
9 12 0
-9 -12 0
12 13 20 0
-12 -13 -20 0
10 12 13 0
-10 -12 -13 0
13 21 0
-13 -21 0
11 12 14 0
-11 -12 -14 0
13 14 22 0
-13 -14 -22 0
1 11 15 0
-1 -11 -15 0
12 15 0
-12 -15 0
13 15 23 0
-13 -15 -23 0
2 11 16 0
-2 -11 -16 0
12 13 16 0
-12 -13 -16 0
13 16 24 0
-13 -16 -24 0
3 11 17 0
-3 -11 -17 0
12 14 17 0
-12 -14 -17 0
13 17 25 0
-13 -17 -25 0
4 11 18 0
-4 -11 -18 0
12 15 18 0
-12 -15 -18 0
13 18 26 0
-13 -18 -26 0
5 11 19 0
-5 -11 -19 0
12 16 19 0
-12 -16 -19 0
13 19 27 0
-13 -19 -27 0
6 11 20 0
-6 -11 -20 0
12 17 20 0
-12 -17 -20 0
7 11 21 0
-7 -11 -21 0
12 18 21 0
-12 -18 -21 0
8 11 22 0
-8 -11 -22 0
12 19 22 0
-12 -19 -22 0
9 11 23 0
-9 -11 -23 0
12 20 23 0
-12 -20 -23 0
10 11 24 0
-10 -11 -24 0
12 21 24 0
-12 -21 -24 0
11 25 0
-11 -25 0
12 22 25 0
-12 -22 -25 0
1 10 26 0
-1 -10 -26 0
11 12 26 0
-11 -12 -26 0
12 23 26 0
-12 -23 -26 0
2 10 27 0
-2 -10 -27 0
11 13 27 0
-11 -13 -27 0
12 24 27 0
-12 -24 -27 0
