certificates/rado_a11_c135_N27.drat
12 11 -27 0
11 -26 -27 0
-26 -27 0
d 11 -26 -27 0
-11 -27 0
-27 0
-25 0
11 0
-12 0
9 0
15 0
24 0
22 0
-23 0
-1 0
-10 0
-8 0
26 0
20 0
4 0
7 0
13 0
2 0
5 0
14 0
-18 0
0
